unsat
(define-fun f ((x (_ BitVec 64))) (_ BitVec 64) (im (bvand #b0000000000000000000000000000000000000000000000000000000000000001 (bvnot x)) #b0000000000000000000000000000000000000000000000000000000000000001 (smol (smol (shesh x)))))
1.49user 0.06system 0:01.56elapsed 99%CPU (0avgtext+0avgdata 128460maxresident)k
0inputs+8outputs (0major+27002minor)pagefaults 0swaps
